100
1000
200
199
197
197
196
196
196
195
194
194
192
192
192
192
191
191
191
191
191
190
189
188
188
188
188
187
187
186
185
185
185
184
184
182
180
179
179
177
177
177
176
176
176
176
176
175
175
175
175
175
175
174
174
174
174
174
173
173
171
171
171
170
170
169
168
168
168
167
164
164
163
162
161
160
159
159
158
158
157
156
156
156
155
155
155
155
154
154
154
154
152
152
152
151
151
151
151
150
150
150
